--- Job EVCS_15_C.gms Start 05/02/22 15:22:40 34.3.0 rac355f3 WEX-WEI x86 64bit/MS Windows
--- Applying:
    C:\GAMS\34\gmsprmNT.txt
--- GAMS Parameters defined
    Input "C:\Users\kaspe\OneDrive\Documents\UiO\MASTEROPPGAVE\GAMS -Models\Scenario C\EVCS_15_C.gms"
    ScrDir "C:\Users\kaspe\OneDrive\Documents\UiO\MASTEROPPGAVE\GAMS -Models\Scenario C\225a\"
    SysDir C:\GAMS\34\
    LogOption 2
Licensee: Small MUD - 5 User License                     S210208|0002AO-WIN
          University of Oslo, Institute for Technology Systems      DC15723
          C:\Users\kaspe\OneDrive\Documents\GAMS\gamslice.txt
          License Admin: Arild Hemstad, arild.hemstad@its.uio.no           
GAMS 34.3.0   Copyright (C) 1987-2021 GAMS Development. All rights reserved
--- Starting compilation
--- EVCS_15_C.gms(36) 6 Mb
--- . demand_winter.tsv(276336) 7 Mb
--- EVCS_15_C.gms(42) 7 Mb
--- . Prices_Winter.tsv(34542) 8 Mb
--- EVCS_15_C.gms(228) 8 Mb
--- Starting execution: elapsed 0:00:01.706
--- EVCS_15_C.gms(311002) 11 Mb
--- Generating MIP model optimal_generation
--- EVCS_15_C.gms(311098) 125 Mb
---   518,134 rows  276,348 columns  1,381,690 non-zeroes
--- Executing CPLEX (Solvelink=2): elapsed 0:00:15.121

IBM ILOG CPLEX   34.3.0 rac355f3 Released Feb 25, 2021 WEI x86 64bit/MS Window

--- GAMS/Cplex licensed for continuous and discrete problems.
--- Space for names approximately 23.94 Mb
--- Use option 'names no' to turn use of names off
--- GMO memory 153.50 Mb (peak 155.61 Mb)
--- Dictionary memory 0.00 Mb
--- Cplex 20.1.0.0 link memory 11.20 Mb (peak 57.37 Mb)
--- Starting Cplex

Version identifier: 20.1.0.0 | 2020-11-10 | 9bedb6d68
CPXPARAM_Advance                                 0
CPXPARAM_Threads                                 1
CPXPARAM_MIP_Display                             4
CPXPARAM_MIP_Tolerances_AbsMIPGap                0
Tried aggregator 1 time.
LP Presolve eliminated 207255 rows and 69090 columns.
Aggregator did 69085 substitutions.
Reduced LP has 241793 rows, 138173 columns, and 690834 nonzeros.
Presolve time = 12.98 sec. (8441.34 ticks)
Initializing dual steep norms . . .

Iteration log . . .
Iteration:     1   Dual objective     =          3367.354595
Elapsed time = 15.00 sec. (10003.41 ticks, 562 iterations)
Iteration:   737   Dual objective     =         86542.570853
Iteration:  1961   Dual objective     =        120105.759526
Iteration:  2662   Dual objective     =        146200.907427
Iteration:  5023   Dual objective     =        176781.228082
Iteration:  5974   Dual objective     =        182262.669942
Iteration:  7960   Dual objective     =        216600.324576
Iteration: 11509   Dual objective     =        241182.860009
Iteration: 14889   Dual objective     =        257759.439354
Iteration: 18039   Dual objective     =        268663.334240
Iteration: 21143   Dual objective     =        277162.589085
Iteration: 23691   Dual objective     =        282900.308181
Iteration: 26289   Dual objective     =        287518.801024
Elapsed time = 27.72 sec. (20005.14 ticks, 28478 iterations)
Iteration: 28804   Dual objective     =        290664.616610
Iteration: 30963   Dual objective     =        292299.686127
Iteration: 31790   Dual objective     =        298191.845332
Iteration: 32362   Dual objective     =        300416.774162
Iteration: 32892   Dual objective     =        302019.023592

--- LP status (1): optimal.
--- Cplex Time: 38.00sec (det. 27867.51 ticks)


Optimal solution found
Objective:       302434.952153

--- Reading solution for model optimal_generation
--- Executing after solve: elapsed 0:00:59.939
--- EVCS_15_C.gms(311100) 125 Mb
--- GDX File (execute_unload) C:\Users\kaspe\OneDrive\Documents\UiO\MASTEROPPGAVE\GAMS -Models\Scenario C\EVCS_15_C.gdx
--- EVCS_15_C.gms(311104) 125 Mb
--- GDX File (execute_unload) C:\Users\kaspe\OneDrive\Documents\UiO\MASTEROPPGAVE\GAMS -Models\Scenario C\EVCS_15_C.gdx
--- EVCS_15_C.gms(311105) 125 Mb
*** Status: Normal completion
--- Job EVCS_15_C.gms Stop 05/02/22 15:23:44 elapsed 0:01:04.158
